3
8
20
1 1.3 1.55 1.75 2.1
45 31 7 11 48 31 36 9 7 49 45 37 33 7 25 23 37 9 30 20 36 17 27 45 18 10 7 27 11 35 10 30 16 9 37 27 16 38 37 43 11 8 32 9 36 27 35 24 23 22 30 13 15 43 24 35 44 10 33 38 26 41 10 25 19 13 38 31 48 47 34 26 38 36 23 33 12 25 21 13 39 34 46 17 17 38 42 20 29 31 13 20 22 41 19 14 40 36 7 20 18 7 33 23 25 27 31 16 44 47 23 28 44 36 49 19 39 17 39 5 49 47 9 34 20 24 8 14 48 14 46 29 32 6 19 5 23 40 31 38 40 22 37 7 22 49 45 38 43 30 20 43 39 25 48 25 15 37 35 24 